50

99 22 157
96 21 219
95 31 160
95 20 241
91 29 171
91 16 274
91 23 154
90 3 228
89 12 241
86 17 255
85 16 218
85 7 141
84 21 258
79 7 279
76 25 186
69 26 273
68 19 195
68 26 156
65 33 220
64 31 181
63 17 296
58 29 295
58 5 143
54 27 178
53 17 298
52 7 244
50 1 289
49 18 202
48 18 211
48 20 275
45 5 271
45 8 300
43 8 264
42 20 158
36 10 166
35 11 200
33 6 258
31 15 160
31 4 141
30 3 267
30 12 215
30 15 168
29 5 176
27 3 300
27 3 249
26 8 283
22 5 279
22 0 198
22 10 279
21 11 271
